8 6 39
1 26 38
22 29 38
6 19 23
24 43 44
31 20 39
9 30 30
11 18 43
39 25 25
44 42 9
36 49 15
24 1 42
14 25 22
1 32 41
24 6 33
19 36 5
7 46 36
38 8 3
30 46 27
4 41 20
15 27 20
31 2 23
22 15 47
43 18 28
33 43 33
